\* Problem: musee *\

Minimize
 obj: + xB + xC + xD + xE + xF + xG + xH + xI + xJ + xK + xL + xM + xN
 + xO + xP + xQ + xR

Subject To
 salle1: + xF + xE + xB >= 1
 salle2: + xD + xC + xB >= 1
 salle3: + xI + xH + xD >= 1
 salle4: + xM + xL + xG + xE >= 2
 salle5: + xK + xJ + xH + xG + xF + xC >= 1
 salle6: + xP + xJ + xI >= 1
 salle7: + xN + xM >= 1
 salle8: + xR + xO + xN + xL + xK >= 1
 salle9: + xQ + xP + xO >= 1
 salle10: + xR + xQ >= 1

Bounds
 0 <= xB <= 1
 0 <= xC <= 1
 0 <= xD <= 1
 0 <= xE <= 1
 0 <= xF <= 1
 0 <= xG <= 1
 0 <= xH <= 1
 0 <= xI <= 1
 0 <= xJ <= 1
 0 <= xK <= 1
 0 <= xL <= 1
 0 <= xM <= 1
 0 <= xN <= 1
 0 <= xO <= 1
 0 <= xP <= 1
 0 <= xQ <= 1
 0 <= xR <= 1

Generals
 xB
 xC
 xD
 xE
 xF
 xG
 xH
 xI
 xJ
 xK
 xL
 xM
 xN
 xO
 xP
 xQ
 xR

End
